\* Source Pyomo model name=unknown *\

min 
x43:
+0.00094553674959825312 x1
+0.00094557620452893486 x10
+0.00099441274959170172 x11
+0.017212245608933495 x12
+0.00094198335691562148 x13
+0.00099539763394257018 x14
+0.0009489063160024201 x15
+0 x16
+0 x17
+0 x2
+0.00099293261701810694 x3
+0 x4
+0.018616027675231163 x5
+0.00098746494407252498 x6
+0 x7
+0.056022355041748066 x8
+0.0010245895906843777 x9

s.t.

c_e_x44_:
-1 x18
+1 x5
= 0

c_e_x45_:
+1 x12
-1 x19
= 0

c_e_x46_:
-1 x20
+1 x8
= 0

c_e_x47_:
-0.54574705343283514 x34
+1 x9
= 0

c_e_x48_:
-0.80804308516355228 x35
+1 x6
= 0

c_e_x49_:
+1 x3
-0.84582566907399481 x36
= 0

c_e_x50_:
+1 x10
-0.90742435106147523 x37
= 0

c_e_x51_:
+1 x13
-0.091355982232697072 x38
= 0

c_e_x52_:
+1 x11
-0.70564129721923674 x39
= 0

c_e_x53_:
+1 x14
-0.68402018575611456 x40
= 0

c_e_x54_:
+1 x15
-1.5202842752868879 x41
= 0

c_e_x55_:
-1 x18
+1 x34
= 0

c_e_x56_:
-1 x28
+1 x35
= 0

c_e_x57_:
-1 x20
+1 x36
= 0

c_e_x58_:
-1 x19
+1 x37
= 0

c_e_x59_:
-1 x24
+1 x38
= 0

c_e_x60_:
-1 x25
+1 x39
= 0

c_e_x61_:
-1 x26
+1 x40
= 0

c_e_x62_:
-1 x27
+1 x41
= 0

c_e_x63_:
-1 x18
+1 x34
= 0

c_e_x64_:
-1 x19
+1 x37
= 0

c_e_x65_:
-1 x20
+1 x36
= 0

c_e_x66_:
-1 x24
+1 x38
= 0

c_e_x67_:
-1 x25
+1 x39
= 0

c_e_x68_:
-1 x26
+1 x40
= 0

c_e_x69_:
-1 x27
+1 x41
= 0

c_e_x70_:
-1 x28
+1 x35
= 0

c_e_x71_:
-1 x21
+1 x9
= 0

c_e_x72_:
+1 x10
-1 x22
= 0

c_e_x73_:
-1 x23
+1 x3
= 0

c_e_x74_:
+1 x13
-1 x29
= 0

c_e_x75_:
+1 x11
-1 x30
= 0

c_e_x76_:
+1 x14
-1 x31
= 0

c_e_x77_:
+1 x15
-1 x32
= 0

c_e_x78_:
-1 x33
+1 x6
= 0

c_e_x79_:
+1 x33
= 907.63322998466185

c_e_x80_:
+1 x29
= 8.5531433451090084

c_e_x81_:
+1 x30
= 24.923397663529204

c_e_x82_:
+1 x31
= 132.08774438918115

c_e_x83_:
+1 x32
= 422.25890561930152

c_e_x84_:
-1 x33
+1 x4
= 0

c_e_x85_:
+1 x16
-1 x29
= 0

c_e_x86_:
-1 x30
+1 x7
= 0

c_e_x87_:
+1 x2
-1 x31
= 0

c_e_x88_:
+1 x17
-1 x32
= 0

c_e_x89_:
+1 x21
+1 x22
+1 x23
-1 x24
-1 x25
-1 x26
-1 x27
-1 x28
= 0

c_e_x90_:
+1 x1
-1 x21
-1 x22
-1 x23
= 0

c_e_x91_:
+0.073200000000000001 x12
-1 x42
+0 x5
+0 x8
= 0

c_u_x92_:
+1 x42
<= 872.13999999999999

c_e_ONE_VAR_CONSTANT: 
ONE_VAR_CONSTANT = 1.0

bounds
   0 <= x1 <= +inf
   0 <= x2 <= +inf
   0 <= x3 <= 999999
   0 <= x4 <= +inf
   410.92089780155908 <= x5 <= 410.92089780155908
   0 <= x6 <= 999999
   0 <= x7 <= +inf
   0 <= x8 <= +inf
   0 <= x9 <= 999999
   0 <= x10 <= 999999
   0 <= x11 <= 999999
   0 <= x12 <= +inf
   0 <= x13 <= 999999
   0 <= x14 <= 999999
   0 <= x15 <= 999999
   0 <= x16 <= +inf
   0 <= x17 <= +inf
   0 <= x18 <= +inf
   0 <= x19 <= +inf
   0 <= x20 <= +inf
   0 <= x21 <= +inf
   0 <= x22 <= +inf
   0 <= x23 <= +inf
   0 <= x24 <= +inf
   0 <= x25 <= +inf
   0 <= x26 <= +inf
   0 <= x27 <= +inf
   0 <= x28 <= +inf
   0 <= x29 <= +inf
   0 <= x30 <= +inf
   0 <= x31 <= +inf
   0 <= x32 <= +inf
   0 <= x33 <= +inf
   0 <= x34 <= +inf
   0 <= x35 <= +inf
   0 <= x36 <= +inf
   0 <= x37 <= +inf
   0 <= x38 <= +inf
   0 <= x39 <= +inf
   0 <= x40 <= +inf
   0 <= x41 <= +inf
   0 <= x42 <= +inf
end
